0   25  13	47	33	50	29	65	72	58
25	0	15	28	42	35	38	55	60	46
13	15	0	32	40	44	23	52	59	47
47	28	32	0	18	39	51	62	67	41
33	42	40	18	0	20	34	45	52	37
50	35	44	39	20	0	26	58	64	53
29	38	23	51	34	26	0	49	57	42
65	55	52	62	45	58	49	0	19	36
72	60	59	67	52	64	57	19	0	22
58	46	47	41	37	53	42	36	22	0